words_hard_train/7102.qaiger
aag 54 16 0 1 38
2
4
8
12
16
18
22
34
36
50
52
60
62
76
84
88
109
6 2 5
10 7 9
14 8 13
20 17 19
24 20 23
26 15 25
28 24 13
30 27 29
32 11 31
38 34 37
40 28 5
42 39 41
44 33 43
46 7 29
48 44 47
54 51 52
56 40 37
58 55 57
64 61 62
66 64 51
68 67 35
70 69 56
72 59 71
74 48 72
78 76 17
80 51 53
82 81 65
86 20 85
90 88 23
92 86 91
94 90 21
96 19 84
98 97 16
100 94 99
102 93 101
104 83 103
106 79 104
108 74 106
i0 2 y1[4]
i1 1 x1[4]
i2 2 y1[3]
i3 1 x1[3]
i4 1 x1[0]
i5 1 x1[1]
i6 1 x1[2]
i7 2 y1[5]
i8 1 x1[5]
i9 1 x1[6]
i10 2 y1[6]
i11 1 x1[7]
i12 2 y1[7]
i13 2 y1[0]
i14 2 y1[1]
i15 2 y1[2]
o0 bool[0]
c
simplified
  !=
    or
      2 y1
      1 x1
    subtract
      >> 5
        1
      1 x1
