words_hard_train/7102.qaiger.qdimacs
p cnf 54 115
a 2 6 8 9 11 18 25 30 0
e 1 3 4 5 7 10 12 13 14 15 16 17 19 20 21 22 23 24 26 27 28 29 31 32 33 34 35 36 37 38 39 40 41 42 43 44 45 46 47 48 49 50 51 52 53 54 0
-1 2 3 0
1 -3 0
-2 -3 0
3 4 5 0
-3 -5 0
-4 -5 0
-4 6 7 0
4 -7 0
-6 -7 0
8 9 10 0
-8 -10 0
-9 -10 0
-10 11 12 0
10 -12 0
-11 -12 0
7 12 13 0
-7 -13 0
-12 -13 0
-12 6 14 0
12 -14 0
-6 -14 0
13 14 15 0
-13 -15 0
-14 -15 0
5 15 16 0
-5 -16 0
-15 -16 0
-17 18 19 0
17 -19 0
-18 -19 0
-14 2 20 0
14 -20 0
-2 -20 0
19 20 21 0
-19 -21 0
-20 -21 0
16 21 22 0
-16 -22 0
-21 -22 0
3 14 23 0
-3 -23 0
-14 -23 0
-22 23 24 0
22 -24 0
-23 -24 0
25 -26 27 0
-25 -27 0
26 -27 0
-20 18 28 0
20 -28 0
-18 -28 0
27 28 29 0
-27 -29 0
-28 -29 0
30 -31 32 0
-30 -32 0
31 -32 0
-32 25 33 0
32 -33 0
-25 -33 0
33 17 34 0
-33 -34 0
-17 -34 0
34 -28 35 0
-34 -35 0
28 -35 0
29 35 36 0
-29 -36 0
-35 -36 0
-24 -36 37 0
24 -37 0
36 -37 0
-38 8 39 0
38 -39 0
-8 -39 0
25 26 40 0
-25 -40 0
-26 -40 0
40 32 41 0
-40 -41 0
-32 -41 0
-10 42 43 0
10 -43 0
-42 -43 0
-44 11 45 0
44 -45 0
-11 -45 0
-43 45 46 0
43 -46 0
-45 -46 0
-45 10 47 0
45 -47 0
-10 -47 0
9 -42 48 0
-9 -48 0
42 -48 0
48 -8 49 0
-48 -49 0
8 -49 0
-47 49 50 0
47 -50 0
-49 -50 0
46 50 51 0
-46 -51 0
-50 -51 0
41 51 52 0
-41 -52 0
-51 -52 0
39 -52 53 0
-39 -53 0
52 -53 0
-37 -53 54 0
37 -54 0
53 -54 0
-54 0
